(declare-const X String)
; (\A|\s)((\)+|\(+|\}+|\{+|\]+|\[+|\|+|\\+|/+|>+|<+|D+|[@#!OoXxZS$0])[-~+o]?[,*]?((<[:;=+])|[<:;=+])|(\)+|\(+|\}+|\{+|\]+|\[+|\|+|\\+|/+|>+|<+|D+)[-~+o]?[xX8]<?)(\Z|\s)
(assert (str.in.re X (re.++ (re.union (str.to.re " ") (str.to.re "\x09") (str.to.re "\x0a") (str.to.re "\x0c") (str.to.re "\x0d")) (re.union (re.++ (re.union (re.+ (str.to.re ")")) (re.+ (str.to.re "(")) (re.+ (str.to.re "}")) (re.+ (str.to.re "{")) (re.+ (str.to.re "]")) (re.+ (str.to.re "[")) (re.+ (str.to.re "|")) (re.+ (str.to.re "\x5c")) (re.+ (str.to.re "/")) (re.+ (str.to.re ">")) (re.+ (str.to.re "<")) (re.+ (str.to.re "D")) (str.to.re "@") (str.to.re "#") (str.to.re "!") (str.to.re "O") (str.to.re "o") (str.to.re "X") (str.to.re "x") (str.to.re "Z") (str.to.re "S") (str.to.re "$") (str.to.re "0")) (re.opt (re.union (str.to.re "-") (str.to.re "~") (str.to.re "+") (str.to.re "o"))) (re.opt (re.union (str.to.re ",") (str.to.re "*"))) (re.union (re.++ (str.to.re "<") (re.union (str.to.re ":") (str.to.re ";") (str.to.re "=") (str.to.re "+"))) (str.to.re "<") (str.to.re ":") (str.to.re ";") (str.to.re "=") (str.to.re "+"))) (re.++ (re.union (re.+ (str.to.re ")")) (re.+ (str.to.re "(")) (re.+ (str.to.re "}")) (re.+ (str.to.re "{")) (re.+ (str.to.re "]")) (re.+ (str.to.re "[")) (re.+ (str.to.re "|")) (re.+ (str.to.re "\x5c")) (re.+ (str.to.re "/")) (re.+ (str.to.re ">")) (re.+ (str.to.re "<")) (re.+ (str.to.re "D"))) (re.opt (re.union (str.to.re "-") (str.to.re "~") (str.to.re "+") (str.to.re "o"))) (re.union (str.to.re "x") (str.to.re "X") (str.to.re "8")) (re.opt (str.to.re "<")))) (re.union (str.to.re " ") (str.to.re "\x09") (str.to.re "\x0a") (str.to.re "\x0c") (str.to.re "\x0d")) (str.to.re "\x0a"))))
(check-sat)
